\ Model Hospital NetwORk
\ LP format - for model browsing. Use MPS format to capture full model detail.
Minimize
  300 x_h1_c1 + 300 x_h1_c2 + 300 x_h1_c3 + 300 x_h1_c4 + 300 x_h1_c5
   + 50 x_h2_c1 + 50 x_h2_c2 + 50 x_h2_c3 + 50 x_h2_c4 + 50 x_h2_c5
   + 50 x_h2_c7 + 300 x_h3_c3 + 300 x_h3_c4 + 300 x_h3_c5 + 480 x_h4_c2
   + 480 x_h4_c6 + 480 x_h4_c7 + 480 x_h4_c8 + 400 x_h5_c1 + 400 x_h5_c2
   + 400 x_h5_c3 + 400 x_h5_c4 + 400 x_h5_c5 + 400 x_h5_c6 + 400 x_h5_c7
Subject To
 R0: x_h1_c1 + x_h2_c1 + x_h5_c1 = 1
 R1: x_h1_c2 + x_h2_c2 + x_h4_c2 + x_h5_c2 = 1
 R2: x_h1_c3 + x_h2_c3 + x_h3_c3 + x_h5_c3 = 1
 R3: x_h1_c4 + x_h2_c4 + x_h3_c4 + x_h5_c4 = 1
 R4: x_h1_c5 + x_h2_c5 + x_h3_c5 + x_h5_c5 = 1
 R5: x_h4_c6 + x_h5_c6 = 1
 R6: x_h2_c7 + x_h4_c7 + x_h5_c7 = 1
 R7: x_h4_c8 = 1
 R8: 7.071067811865476 x_h1_c1 - 20 a_h1_k1 - 20 a_h1_k2 <= 0
 R9: 25 x_h1_c2 - 20 a_h1_k1 - 20 a_h1_k2 <= 0
 R10: 11.18033988749895 x_h1_c3 - 20 a_h1_k1 - 20 a_h1_k2 <= 0
 R11: 11.18033988749895 x_h1_c4 - 20 a_h1_k1 - 20 a_h1_k2 <= 0
 R12: 15.8113883008419 x_h1_c5 - 20 a_h1_k1 - 20 a_h1_k2 <= 0
 R13: 7.071067811865476 x_h2_c1 - 20 a_h2_k1 - 20 a_h2_k2 <= 0
 R14: 15 x_h2_c2 - 20 a_h2_k1 - 20 a_h2_k2 <= 0
 R15: 5 x_h2_c3 - 20 a_h2_k1 - 20 a_h2_k2 <= 0
 R16: 11.18033988749895 x_h2_c4 - 20 a_h2_k1 - 20 a_h2_k2 <= 0
 R17: 15.8113883008419 x_h2_c5 - 20 a_h2_k1 - 20 a_h2_k2 <= 0
 R18: 28.2842712474619 x_h2_c7 - 20 a_h2_k1 - 20 a_h2_k2 <= 0
 R19: 26.92582403567252 x_h3_c3 - 20 a_h3_k1 - 20 a_h3_k2 <= 0
 R20: 20.6155281280883 x_h3_c4 - 20 a_h3_k1 - 20 a_h3_k2 <= 0
 R21: 15.8113883008419 x_h3_c5 - 20 a_h3_k1 - 20 a_h3_k2 <= 0
 R22: 15 x_h4_c2 - 20 a_h4_k1 - 20 a_h4_k2 <= 0
 R23: 10 x_h4_c6 - 20 a_h4_k1 - 20 a_h4_k2 <= 0
 R24: 22.3606797749979 x_h4_c7 - 20 a_h4_k1 - 20 a_h4_k2 <= 0
 R25: 25 x_h4_c8 - 20 a_h4_k1 - 20 a_h4_k2 <= 0
 R26: 21.21320343559643 x_h5_c1 - 20 a_h5_k1 - 20 a_h5_k2 <= 0
 R27: 11.18033988749895 x_h5_c2 - 20 a_h5_k1 - 20 a_h5_k2 <= 0
 R28: 11.18033988749895 x_h5_c3 - 20 a_h5_k1 - 20 a_h5_k2 <= 0
 R29: 15 x_h5_c4 - 20 a_h5_k1 - 20 a_h5_k2 <= 0
 R30: 15.8113883008419 x_h5_c5 - 20 a_h5_k1 - 20 a_h5_k2 <= 0
 R31: 20 x_h5_c6 - 20 a_h5_k1 - 20 a_h5_k2 <= 0
 R32: 14.14213562373095 x_h5_c7 - 20 a_h5_k1 - 20 a_h5_k2 <= 0
 R33: 7.071067811865476 x_h1_c1 - 30 a_h1_k3 <= 0
 R34: 25 x_h1_c2 - 30 a_h1_k3 <= 0
 R35: 11.18033988749895 x_h1_c3 - 30 a_h1_k3 <= 0
 R36: 11.18033988749895 x_h1_c4 - 30 a_h1_k3 <= 0
 R37: 15.8113883008419 x_h1_c5 - 30 a_h1_k3 <= 0
 R38: 7.071067811865476 x_h2_c1 - 30 a_h2_k3 <= 0
 R39: 15 x_h2_c2 - 30 a_h2_k3 <= 0
 R40: 5 x_h2_c3 - 30 a_h2_k3 <= 0
 R41: 11.18033988749895 x_h2_c4 - 30 a_h2_k3 <= 0
 R42: 15.8113883008419 x_h2_c5 - 30 a_h2_k3 <= 0
 R43: 28.2842712474619 x_h2_c7 - 30 a_h2_k3 <= 0
 R44: 26.92582403567252 x_h3_c3 - 30 a_h3_k3 <= 0
 R45: 20.6155281280883 x_h3_c4 - 30 a_h3_k3 <= 0
 R46: 15.8113883008419 x_h3_c5 - 30 a_h3_k3 <= 0
 R47: 15 x_h4_c2 - 30 a_h4_k3 <= 0
 R48: 10 x_h4_c6 - 30 a_h4_k3 <= 0
 R49: 22.3606797749979 x_h4_c7 - 30 a_h4_k3 <= 0
 R50: 25 x_h4_c8 - 30 a_h4_k3 <= 0
 R51: 21.21320343559643 x_h5_c1 - 30 a_h5_k3 <= 0
 R52: 11.18033988749895 x_h5_c2 - 30 a_h5_k3 <= 0
 R53: 11.18033988749895 x_h5_c3 - 30 a_h5_k3 <= 0
 R54: 15 x_h5_c4 - 30 a_h5_k3 <= 0
 R55: 15.8113883008419 x_h5_c5 - 30 a_h5_k3 <= 0
 R56: 20 x_h5_c6 - 30 a_h5_k3 <= 0
 R57: 14.14213562373095 x_h5_c7 - 30 a_h5_k3 <= 0
 R58: x_h1_c1 + x_h1_c2 + x_h1_c3 + x_h1_c4 + x_h1_c5 - a_h1_k1 - 2 a_h1_k2
   - 3 a_h1_k3 <= 0
 R59: x_h2_c1 + x_h2_c2 + x_h2_c3 + x_h2_c4 + x_h2_c5 + x_h2_c7 - a_h2_k1
   - 3 a_h2_k2 - 4 a_h2_k3 <= 0
 R60: x_h3_c3 + x_h3_c4 + x_h3_c5 - a_h3_k1 - 2 a_h3_k2 - 3 a_h3_k3 <= 0
 R61: x_h4_c2 + x_h4_c6 + x_h4_c7 + x_h4_c8 - 2 a_h4_k1 - 2 a_h4_k2
   - 3 a_h4_k3 <= 0
 R62: x_h5_c1 + x_h5_c2 + x_h5_c3 + x_h5_c4 + x_h5_c5 + x_h5_c6 + x_h5_c7
   - a_h5_k1 - 2 a_h5_k2 - 3 a_h5_k3 <= 0
 R63: x_h1_c1 - a_h1_k2 - a_h1_k3 = 0
 R64: x_h1_c3 - a_h1_k2 - a_h1_k3 = 0
 R65: x_h2_c1 - a_h2_k2 - a_h2_k3 = 0
 R66: x_h2_c3 - a_h2_k2 - a_h2_k3 = 0
 R67: x_h3_c3 - a_h3_k2 - a_h3_k3 = 0
 R68: x_h4_c6 - a_h4_k2 - a_h4_k3 = 0
 R69: x_h5_c1 - a_h5_k2 - a_h5_k3 = 0
 R70: x_h5_c3 - a_h5_k2 - a_h5_k3 = 0
 R71: x_h5_c6 - a_h5_k2 - a_h5_k3 = 0
 R72: a_h1_k1 + a_h1_k2 + a_h1_k3 <= 1
 R73: a_h2_k1 + a_h2_k2 + a_h2_k3 <= 1
 R74: a_h3_k1 + a_h3_k2 + a_h3_k3 <= 1
 R75: a_h4_k1 + a_h4_k2 + a_h4_k3 <= 1
 R76: a_h5_k1 + a_h5_k2 + a_h5_k3 <= 1
Bounds
Binaries
 x_h1_c1 x_h1_c2 x_h1_c3 x_h1_c4 x_h1_c5 x_h2_c1 x_h2_c2 x_h2_c3 x_h2_c4
 x_h2_c5 x_h2_c7 x_h3_c3 x_h3_c4 x_h3_c5 x_h4_c2 x_h4_c6 x_h4_c7 x_h4_c8
 x_h5_c1 x_h5_c2 x_h5_c3 x_h5_c4 x_h5_c5 x_h5_c6 x_h5_c7 a_h1_k1 a_h1_k2
 a_h1_k3 a_h2_k1 a_h2_k2 a_h2_k3 a_h3_k1 a_h3_k2 a_h3_k3 a_h4_k1 a_h4_k2
 a_h4_k3 a_h5_k1 a_h5_k2 a_h5_k3
End
